Version identifier: 22.1.1.0 | 2022-11-28 | 9160aff4d
CPXPARAM_ClockType                               1
CPXPARAM_Read_DataCheck                          1
CPXPARAM_Threads                                 1
CPXPARAM_TimeLimit                               7200
CPXPARAM_MIP_Tolerances_AbsMIPGap                0
CPXPARAM_MIP_Tolerances_MIPGap                   0
CPXPARAM_MIP_Tolerances_Integrality              0
Tried aggregator 2 times.
MIP Presolve eliminated 2647 rows and 9 columns.
MIP Presolve modified 2168 coefficients.
Aggregator did 600 substitutions.
Reduced MIP has 8794 rows, 4341 columns, and 28416 nonzeros.
Reduced MIP has 4341 binaries, 0 generals, 0 SOSs, and 0 indicators.
Presolve time = 0.05 sec. (30.25 ticks)
Probing time = 0.01 sec. (4.05 ticks)
Tried aggregator 1 time.
Detecting symmetries...
MIP Presolve eliminated 500 rows and 1 columns.
Reduced MIP has 8294 rows, 4340 columns, and 26915 nonzeros.
Reduced MIP has 4340 binaries, 0 generals, 0 SOSs, and 0 indicators.
Presolve time = 0.05 sec. (27.09 ticks)
Probing time = 0.01 sec. (3.89 ticks)
Clique table members: 5317.
MIP emphasis: balance optimality and feasibility.
MIP search method: dynamic search.
Parallel mode: none, using 1 thread.
Root relaxation solution time = 1.36 sec. (1124.69 ticks)

        Nodes                                         Cuts/
   Node  Left     Objective  IInf  Best Integer    Best Bound    ItCnt     Gap

      0     0     3533.3333  1662                   3533.3333     4890         
      0     0     3300.0000  1513                   Cuts: 330     9259         
      0     0     3300.0000  1457                   Cuts: 171    11999         
      0     0     3300.0000  1489                    Cuts: 97    14169         
      0     0     3300.0000  1107                    Cuts: 22    14406         
      0     0     3300.0000  1297                   Cuts: 104    16178         
Detecting symmetries...
*     0+    0                         2746.0000     3300.0000            20.17%
Detecting symmetries...
      0     2     3300.0000  1043     2746.0000     3300.0000    16178   20.17%
Elapsed time = 15.50 sec. (11062.06 ticks, tree = 0.01 MB, solutions = 1)
      3     5     3300.0000  1025     2746.0000     3300.0000    20181   20.17%
      5     7     3300.0000   970     2746.0000     3300.0000    34899   20.17%
      6     8     3300.0000   987     2746.0000     3300.0000    49125   20.17%
      7     9     3300.0000   747     2746.0000     3300.0000    54533   20.17%
      8    10     3300.0000   381     2746.0000     3300.0000    58010   20.17%
      9    11     3300.0000  1313     2746.0000     3300.0000    68949   20.17%
     10    12     3300.0000   452     2746.0000     3300.0000    69226   20.17%
     11    13     3300.0000   797     2746.0000     3300.0000    71646   20.17%
     12    14     3300.0000   500     2746.0000     3300.0000    72883   20.17%
     13    15     3300.0000   542     2746.0000     3300.0000    81278   20.17%
Elapsed time = 38.80 sec. (29644.40 ticks, tree = 0.03 MB, solutions = 1)
     16    18     3300.0000   380     2746.0000     3300.0000    86297   20.17%
     18    20     3300.0000   561     2746.0000     3300.0000    95105   20.17%
     23    25     3300.0000   399     2746.0000     3300.0000   105987   20.17%
     25    27     3300.0000   976     2746.0000     3300.0000   109049   20.17%
     28    30     3300.0000   788     2746.0000     3300.0000   115669   20.17%
     30    32     3300.0000   721     2746.0000     3300.0000   120241   20.17%
     32    34     3300.0000   642     2746.0000     3300.0000   126266   20.17%
     35    37     3300.0000   550     2746.0000     3300.0000   132230   20.17%
     44    46     3300.0000   759     2746.0000     3300.0000   134860   20.17%
     46    48     3294.8000   842     2746.0000     3300.0000   140875   20.17%
Elapsed time = 56.47 sec. (42540.97 ticks, tree = 0.88 MB, solutions = 1)
     47    49     3300.0000  1008     2746.0000     3300.0000   144500   20.17%
     53    55     3291.3571   982     2746.0000     3300.0000   150041   20.17%
     54    54    infeasible           2746.0000     3300.0000   153412   20.17%
     55    55     3277.0714  1004     2746.0000     3300.0000   166117   20.17%
     58    56    infeasible           2746.0000     3300.0000   169668   20.17%
     63    59     3229.6571   569     2746.0000     3300.0000   174004   20.17%
     73    63     3300.0000   359     2746.0000     3300.0000   178680   20.17%
     78    68     3300.0000   795     2746.0000     3300.0000   182681   20.17%
     80    70     3300.0000   922     2746.0000     3300.0000   184176   20.17%
     90    80     3300.0000  1128     2746.0000     3300.0000   188162   20.17%
Elapsed time = 74.00 sec. (57013.62 ticks, tree = 2.80 MB, solutions = 1)
     94    84     3300.0000   977     2746.0000     3300.0000   192011   20.17%
     99    89     3300.0000   961     2746.0000     3300.0000   195706   20.17%
    105    95     3300.0000   948     2746.0000     3300.0000   198811   20.17%
    114   104     3300.0000   670     2746.0000     3300.0000   201730   20.17%
    117   107     3300.0000   671     2746.0000     3300.0000   205243   20.17%
    120   110     3300.0000   715     2746.0000     3300.0000   206805   20.17%
    128   116    infeasible           2746.0000     3300.0000   211317   20.17%
    132   120     3300.0000   946     2746.0000     3300.0000   213449   20.17%
    138   126     3300.0000  1164     2746.0000     3300.0000   216411   20.17%
    140   128     3300.0000   942     2746.0000     3300.0000   221001   20.17%
Elapsed time = 88.03 sec. (69771.96 ticks, tree = 6.04 MB, solutions = 1)
    143   131     3300.0000   837     2746.0000     3300.0000   223806   20.17%
    147   135     3300.0000   878     2746.0000     3300.0000   228437   20.17%
    149   137     3297.3415  1007     2746.0000     3300.0000   235182   20.17%
    150   138     3299.9431  1024     2746.0000     3300.0000   238558   20.17%
    154   140     3254.3333   668     2746.0000     3300.0000   243042   20.17%
    162   144     3300.0000   725     2746.0000     3300.0000   246293   20.17%
    169   151     3300.0000   922     2746.0000     3300.0000   249348   20.17%
    173   155     3300.0000  1051     2746.0000     3300.0000   252976   20.17%
    181   163     3300.0000   971     2746.0000     3300.0000   256298   20.17%
    186   166     3300.0000   833     2746.0000     3300.0000   259350   20.17%
Elapsed time = 101.51 sec. (81730.47 ticks, tree = 8.69 MB, solutions = 1)
    194   174     3298.0000   831     2746.0000     3300.0000   263229   20.17%
    198   176     3284.8667   882     2746.0000     3300.0000   269581   20.17%
    203   177     3300.0000  1049     2746.0000     3300.0000   274591   20.17%
    210   184     3300.0000   972     2746.0000     3300.0000   276833   20.17%
    214   188     3300.0000  1025     2746.0000     3300.0000   279832   20.17%
    218   192     3294.0000   936     2746.0000     3300.0000   284143   20.17%
    220   194     3294.0000   882     2746.0000     3300.0000   287094   20.17%
    225   199     3294.0000   972     2746.0000     3300.0000   290218   20.17%
    230   204     3288.0000   726     2746.0000     3300.0000   293739   20.17%
    237   207    infeasible           2746.0000     3300.0000   297530   20.17%
Elapsed time = 115.09 sec. (93390.63 ticks, tree = 11.55 MB, solutions = 1)
    243   209    infeasible           2746.0000     3300.0000   301628   20.17%
    251   215     3300.0000   931     2746.0000     3300.0000   305005   20.17%
    258   222     3300.0000   893     2746.0000     3300.0000   308592   20.17%
    261   225     3295.8750  1119     2746.0000     3300.0000   311580   20.17%
    265   229     3278.1429  1119     2746.0000     3300.0000   316657   20.17%
    267   231     3270.8571  1070     2746.0000     3300.0000   319721   20.17%
    270   234     3270.8571   952     2746.0000     3300.0000   323510   20.17%
    274   238     3261.1429   419     2746.0000     3300.0000   327196   20.17%
    279   239     3300.0000   398     2746.0000     3300.0000   331939   20.17%
    280   240     3300.0000  1186     2746.0000     3300.0000   335496   20.17%
Elapsed time = 129.46 sec. (105689.79 ticks, tree = 13.39 MB, solutions = 1)
    285   245     3300.0000  1090     2746.0000     3300.0000   338494   20.17%
    290   250     3300.0000   901     2746.0000     3300.0000   341295   20.17%
    298   258     3300.0000   877     2746.0000     3300.0000   344043   20.17%
    305   265     3300.0000   923     2746.0000     3300.0000   347970   20.17%
    309   269     3300.0000   917     2746.0000     3300.0000   351489   20.17%
    316   276     3300.0000   846     2746.0000     3300.0000   354395   20.17%
    318   278     3287.6571  1023     2746.0000     3300.0000   361114   20.17%
    321   281     3300.0000   898     2746.0000     3300.0000   364317   20.17%
    328   288     3299.7513   953     2746.0000     3300.0000   371916   20.17%
    335   295     3299.7778   901     2746.0000     3300.0000   377752   20.17%
Elapsed time = 145.36 sec. (120222.30 ticks, tree = 17.06 MB, solutions = 1)
    336   296     3299.3881   864     2746.0000     3300.0000   382047   20.17%
    338   298     3297.8878   882     2746.0000     3300.0000   387313   20.17%
    341   301     3300.0000   929     2746.0000     3300.0000   391245   20.17%
    344   304     3299.8513   921     2746.0000     3300.0000   395878   20.17%
    346   306     3290.0909   802     2746.0000     3300.0000   402535   20.17%
    352   308     3300.0000  1037     2746.0000     3300.0000   407232   20.17%
    356   312     3300.0000   946     2746.0000     3300.0000   410038   20.17%
    361   317     3300.0000  1115     2746.0000     3300.0000   412320   20.17%
    366   322     3290.8571  1185     2746.0000     3300.0000   416630   20.17%
    377   333     3290.0000  1036     2746.0000     3300.0000   420013   20.17%
Elapsed time = 160.08 sec. (133282.73 ticks, tree = 19.63 MB, solutions = 1)
    380   336     3290.0000   950     2746.0000     3300.0000   421786   20.17%
    386   342     3288.0000   511     2746.0000     3300.0000   425049   20.17%
    388   342     3281.0435   859     2746.0000     3300.0000   429791   20.17%
    393   343     3300.0000   978     2746.0000     3300.0000   433628   20.17%
    398   348     3300.0000   878     2746.0000     3300.0000   437326   20.17%
    403   353     3300.0000   977     2746.0000     3300.0000   439478   20.17%
    405   355     3297.2500  1202     2746.0000     3300.0000   442453   20.17%
    410   360     3292.0000   986     2746.0000     3300.0000   445495   20.17%
    415   365     3291.0000  1084     2746.0000     3300.0000   449240   20.17%
    424   374     3277.4000   907     2746.0000     3300.0000   459745   20.17%
Elapsed time = 176.75 sec. (148130.16 ticks, tree = 22.41 MB, solutions = 1)
    440   387     3295.8750  1065     2746.0000     3300.0000   472017   20.17%
    452   399     3290.0000  1041     2746.0000     3300.0000   484168   20.17%
    469   412     3300.0000  1018     2746.0000     3300.0000   497645   20.17%
    484   427     3294.8571  1125     2746.0000     3300.0000   507456   20.17%
    503   442     3300.0000  1015     2746.0000     3300.0000   519762   20.17%
*   513+  450                         2762.0000     3300.0000            19.48%
*   514+  451                         2780.0000     3300.0000            18.71%
*   515+  452                         2782.0000     3300.0000            18.62%
    531   470     3300.0000   867     2782.0000     3300.0000   530410   18.62%
    545   484     3300.0000   928     2782.0000     3300.0000   541819   18.62%
    562   497     3300.0000   935     2782.0000     3300.0000   555133   18.62%
    582   517     3300.0000   789     2782.0000     3300.0000   566281   18.62%
    596   531     3278.6210   937     2782.0000     3300.0000   579899   18.62%
Elapsed time = 221.38 sec. (187733.75 ticks, tree = 33.20 MB, solutions = 4)
    613   544     3300.0000  1094     2782.0000     3300.0000   589237   18.62%

Performing restart 1

Repeating presolve.
Tried aggregator 1 time.
MIP Presolve eliminated 0 rows and 1 columns.
Reduced MIP has 8294 rows, 4339 columns, and 26914 nonzeros.
Reduced MIP has 4339 binaries, 0 generals, 0 SOSs, and 0 indicators.
Presolve time = 0.02 sec. (14.47 ticks)
Tried aggregator 1 time.
Reduced MIP has 8294 rows, 4339 columns, and 26914 nonzeros.
Reduced MIP has 4339 binaries, 0 generals, 0 SOSs, and 0 indicators.
Presolve time = 0.03 sec. (19.01 ticks)
Represolve time = 0.08 sec. (50.41 ticks)
    625     0     3300.0000  1225     2782.0000      Cuts: 39   604747   18.62%
    625     0     3300.0000  1338     2782.0000     Cuts: 151   606188   18.62%
    625     0     3300.0000  1034     2782.0000      Cuts: 10   606506   18.62%
    625     0     3300.0000  1264     2782.0000     Cuts: 132   608022   18.62%
    625     0     3300.0000  1064     2782.0000   ZeroHalf: 5   608438   18.62%
    625     0     3300.0000  1076     2782.0000      Cuts: 89   609278   18.62%
    625     0     3300.0000  1086     2782.0000      Cuts: 48   609941   18.62%
    625     0     3300.0000  1118     2782.0000      Cuts: 77   611396   18.62%
*   625+    0                         2786.0000     3300.0000            18.45%
*   625+    0                         2800.0000     3300.0000            17.86%
*   625+    0                         2828.0000     3300.0000            16.69%
*   625+    0                         2848.0000     3300.0000            15.87%
    625     0        cutoff           2848.0000     3300.0000   611396   15.87%
    625     2     3300.0000   985     2848.0000     3300.0000   611396   15.87%
    627     4     3300.0000  1074     2848.0000     3300.0000   625405   15.87%
    632     9     3298.0000   888     2848.0000     3300.0000   637156   15.87%
    639    16     3300.0000   944     2848.0000     3300.0000   650421   15.87%
    643    20     3300.0000   943     2848.0000     3300.0000   671358   15.87%
    654    31     3300.0000   538     2848.0000     3300.0000   693060   15.87%
*   675+   50                         3264.0000     3300.0000             1.10%
    682    59     3297.0000   261     3264.0000     3300.0000   703209    1.10%
*   705+   66                         3294.0000     3300.0000             0.18%
*   705+   54                         3298.0000     3300.0000             0.06%
*   711     1      integral     0     3300.0000     3300.0000   709035    0.00%

Clique cuts applied:  5
Implied bound cuts applied:  2
Zero-half cuts applied:  173
Gomory fractional cuts applied:  1

Root node processing (before b&c):
  Real time             =   15.49 sec. (11059.47 ticks)
Sequential b&c:
  Real time             =  271.07 sec. (226216.29 ticks)
                          ------------
Total (root+branch&cut) =  286.56 sec. (237275.76 ticks)
Solution is feasible.

---------------------
@@@ MIP_optimal
>>> Benchmark flat50-9.cnf k 10 OPT 3300 TimeCost 288.8350431919098 TimeSolve 287.65864729881287 TimeRead 0.001821279525756836 TimeTrans 1.174574613571167
